instances/p2/p2_15_3-4.dzn
Alphabet = {A,C,G,T};
ns = 15;
nc = 3;
neighbours = [| I(G),I(A),I(T) | I(C),Null,Null | I(C),Null,Null | I(T),Null,Null | I(A),I(G),I(G) | I(G),I(A),Null | I(C),I(G),Null | I(G),I(A),I(C) | I(G),Null,Null | I(T),Null,Null | I(C),I(A),I(G) | I(C),I(T),Null | I(C),Null,Null | Null,Null,Null | I(T),Null,Null |];
