instances/p2/p2_15_3-4.txt
{
	"num_strings": 15,
	"alphabet": "ACGT",
	"strings": [
		"GAT",
		"C",
		"C",
		"T",
		"AGG",
		"GA",
		"CG",
		"GAC",
		"G",
		"T",
		"CAG",
		"CT",
		"C",
		"",
		"T"
	],
	"str_length":[3,1,1,1,3,2,2,3,1,1,3,2,1,0,1]
}